
  17    0


   0   9 2 3 5 6 12 13 14 15 16 
   8   4 11 10 9 4 
   3   1 4 
   3   1 7 
   7   1 8 
  10   1 7 
   4   1 17
   2   1 17
   7   1 17
   2   1 17
   7   1 17
   8   1 17
   2   1 17
   9   1 17
  10   1 17
   1   1 17
   0   0 
